results/res_prop_muc/res_Cimatti_mathsat_cores/QF_UF/PEQ004_size6.smt.smt2.out

real	0m2.405s
user	0m2.299s
sys	0m0.018s
