results/res_prop_muc/res_Cimatti_mathsat_cores/QF_UF/PEQ004_size6.smt.smt2.res
unsat
( _c0
  _c1
  _c10
  _c100
  _c1000
  _c1001
  _c1002
  _c1003
  _c1005
  _c1006
  _c1007
  _c1008
  _c1010
  _c1016
  _c1017
  _c1018
  _c1019
  _c102
  _c1020
  _c1021
  _c1022
  _c1024
  _c1025
  _c1026
  _c1027
  _c1028
  _c1029
  _c1031
  _c1032
  _c1033
  _c1034
  _c1035
  _c1036
  _c1038
  _c1039
  _c104
  _c1040
  _c1041
  _c1042
  _c1043
  _c1045
  _c1046
  _c1047
  _c1048
  _c1049
  _c105
  _c1050
  _c1052
  _c1053
  _c1054
  _c1055
  _c1056
  _c106
  _c1061
  _c1062
  _c1063
  _c1064
  _c1065
  _c1066
  _c1067
  _c1068
  _c1069
  _c107
  _c1070
  _c1071
  _c1072
  _c1073
  _c1074
  _c109
  _c11
  _c110
  _c114
  _c115
  _c118
  _c119
  _c12
  _c120
  _c127
  _c128
  _c13
  _c131
  _c132
  _c133
  _c134
  _c136
  _c138
  _c139
  _c14
  _c140
  _c142
  _c143
  _c145
  _c146
  _c148
  _c149
  _c15
  _c150
  _c153
  _c154
  _c155
  _c156
  _c157
  _c158
  _c16
  _c160
  _c161
  _c162
  _c169
  _c17
  _c170
  _c171
  _c174
  _c176
  _c177
  _c179
  _c18
  _c182
  _c183
  _c185
  _c186
  _c187
  _c189
  _c19
  _c191
  _c192
  _c193
  _c194
  _c197
  _c198
  _c199
  _c2
  _c20
  _c200
  _c201
  _c203
  _c21
  _c211
  _c212
  _c213
  _c218
  _c22
  _c222
  _c223
  _c225
  _c227
  _c228
  _c229
  _c23
  _c230
  _c232
  _c233
  _c234
  _c235
  _c236
  _c237
  _c24
  _c240
  _c241
  _c242
  _c246
  _c25
  _c253
  _c254
  _c255
  _c256
  _c257
  _c258
  _c259
  _c26
  _c260
  _c261
  _c262
  _c263
  _c264
  _c266
  _c267
  _c268
  _c269
  _c27
  _c270
  _c271
  _c272
  _c273
  _c274
  _c275
  _c276
  _c279
  _c28
  _c280
  _c281
  _c283
  _c284
  _c285
  _c286
  _c29
  _c290
  _c3
  _c30
  _c300
  _c301
  _c31
  _c310
  _c314
  _c317
  _c32
  _c320
  _c323
  _c327
  _c33
  _c330
  _c333
  _c334
  _c335
  _c339
  _c34
  _c342
  _c35
  _c354
  _c359
  _c36
  _c360
  _c362
  _c366
  _c368
  _c369
  _c377
  _c383
  _c390
  _c394
  _c395
  _c4
  _c401
  _c402
  _c404
  _c405
  _c420
  _c424
  _c43
  _c431
  _c436
  _c437
  _c45
  _c453
  _c46
  _c461
  _c465
  _c47
  _c474
  _c48
  _c480
  _c485
  _c486
  _c487
  _c5
  _c501
  _c503
  _c512
  _c513
  _c514
  _c515
  _c516
  _c517
  _c518
  _c52
  _c520
  _c521
  _c522
  _c523
  _c524
  _c525
  _c527
  _c528
  _c529
  _c53
  _c530
  _c531
  _c532
  _c534
  _c535
  _c536
  _c537
  _c538
  _c539
  _c54
  _c541
  _c542
  _c543
  _c544
  _c545
  _c546
  _c548
  _c549
  _c550
  _c551
  _c552
  _c553
  _c554
  _c555
  _c556
  _c557
  _c558
  _c559
  _c56
  _c560
  _c562
  _c563
  _c564
  _c565
  _c566
  _c567
  _c569
  _c57
  _c570
  _c571
  _c572
  _c573
  _c574
  _c576
  _c577
  _c578
  _c579
  _c580
  _c581
  _c583
  _c584
  _c585
  _c586
  _c587
  _c59
  _c6
  _c60
  _c600
  _c601
  _c603
  _c605
  _c606
  _c607
  _c609
  _c610
  _c612
  _c613
  _c615
  _c616
  _c617
  _c619
  _c62
  _c621
  _c622
  _c623
  _c624
  _c628
  _c629
  _c63
  _c632
  _c635
  _c636
  _c637
  _c638
  _c64
  _c640
  _c642
  _c643
  _c644
  _c646
  _c647
  _c649
  _c650
  _c652
  _c653
  _c654
  _c66
  _c668
  _c669
  _c674
  _c675
  _c68
  _c680
  _c681
  _c683
  _c684
  _c69
  _c7
  _c70
  _c702
  _c703
  _c704
  _c705
  _c706
  _c709
  _c71
  _c710
  _c711
  _c712
  _c714
  _c731
  _c733
  _c74
  _c740
  _c741
  _c742
  _c743
  _c75
  _c776
  _c777
  _c778
  _c779
  _c782
  _c783
  _c784
  _c788
  _c789
  _c794
  _c8
  _c800
  _c801
  _c802
  _c803
  _c804
  _c812
  _c813
  _c814
  _c815
  _c816
  _c818
  _c819
  _c820
  _c821
  _c822
  _c824
  _c825
  _c826
  _c827
  _c828
  _c830
  _c831
  _c832
  _c833
  _c834
  _c836
  _c837
  _c838
  _c839
  _c840
  _c843
  _c844
  _c845
  _c846
  _c85
  _c852
  _c854
  _c855
  _c856
  _c857
  _c858
  _c859
  _c860
  _c861
  _c862
  _c863
  _c864
  _c866
  _c867
  _c868
  _c869
  _c870
  _c872
  _c873
  _c874
  _c875
  _c877
  _c878
  _c879
  _c88
  _c880
  _c881
  _c882
  _c883
  _c884
  _c885
  _c886
  _c887
  _c89
  _c893
  _c894
  _c896
  _c897
  _c898
  _c899
  _c9
  _c90
  _c900
  _c902
  _c903
  _c904
  _c905
  _c906
  _c907
  _c908
  _c909
  _c91
  _c910
  _c912
  _c913
  _c914
  _c915
  _c916
  _c917
  _c919
  _c92
  _c920
  _c921
  _c922
  _c923
  _c924
  _c925
  _c926
  _c927
  _c928
  _c93
  _c934
  _c935
  _c936
  _c937
  _c938
  _c939
  _c940
  _c941
  _c942
  _c944
  _c945
  _c947
  _c948
  _c949
  _c95
  _c950
  _c951
  _c952
  _c953
  _c954
  _c955
  _c956
  _c957
  _c958
  _c959
  _c96
  _c961
  _c963
  _c964
  _c965
  _c966
  _c968
  _c969
  _c97
  _c975
  _c976
  _c977
  _c978
  _c98
  _c980
  _c982
  _c983
  _c984
  _c985
  _c986
  _c987
  _c989
  _c99
  _c990
  _c991
  _c992
  _c993
  _c994
  _c995
  _c996
  _c997
  _c998
  _c999 )
